 argument  1 = methane_scan.nw



============================== echo of input deck ==============================
echo

start molecule

title "Methane Scan"
charge 0

geometry units angstroms noautoz nocenter noautosym
   C       -1.55829       -1.29231       -0.00626
   H       -0.46561       -1.29829        0.00208
   H       -1.92346       -0.58343        0.74087
   H       -1.92895       -2.29263        0.23025
   H       -1.91357       -0.99608       -0.99396
end

basis
  * library 6-31G*
end

dft
  xc b3lyp
  mult 1
  # Do not print the MO vector coefficients; just too much data.
  noprint "final vectors analysis"

  #D3: www.nwchem-sw.org/index.php/Release61:Density_Functional_Theory_for_Molecules
  disp vdw 3
end


#task rtdbprint



python

import math
from nwgeom import *

# Variables
atomZValueI = 6
atomZValueJ = 1
cutOffDistance = 1.2


indexToZ = {}
indexToCoordinates = {}
bondsToConsider = []


# How many atoms are there?
numberOfAtoms = len(rtdb_get("geometry:geometry:charges"))

# Array of Z values per atom
ZArray = rtdb_get("geometry:geometry:charges")


rawGeometryInAu = rtdb_get("geometry:geometry:coords")
# Get scaling factor
factor = rtdb_get('geometry:geometry:angstrom_to_au')
# Carry out conversion
rawGeometryInAng = map(lambda x: x/factor, rawGeometryInAu)


# Note this runs 0 --> numberOfAtoms-1
for i in range(numberOfAtoms):
  # Add Atom to index
  indexToZ[i+1] = int(ZArray[i])

  # Add Cartesians to index
  # This pretty mess is due to the rawGeometryInAng starting from 0
  x = (3*(i)) + 0
  y = (3*(i)) + 1
  z = (3*(i)) + 2


  indexToCoordinates[i+1] = rawGeometryInAng[x], rawGeometryInAng[y], rawGeometryInAng[z]


# Show atom index, Zvalue and coordinates
#print "Index, Zvalue, Coordinates"
#for key in indexToZ.keys():
#  print key, indexToZ[key], indexToCoordinates[key]



# Step through index
for keyI in indexToZ.keys():
  # Select current Atom C
  if indexToZ[keyI] == atomZValueI:
    # Step through index
    for keyJ in indexToZ.keys():
      # Select atom H
      if indexToZ[keyJ] == atomZValueJ:
        # Calculate distance from C_i to H_j
        x = float(indexToCoordinates[keyI][0]) - float(indexToCoordinates[keyJ][0])
        y = float(indexToCoordinates[keyI][1]) - float(indexToCoordinates[keyJ][1])
        z = float(indexToCoordinates[keyI][2]) - float(indexToCoordinates[keyJ][2])

        dist =  math.sqrt(x*x + y*y + z*z)

        # Typical C-H bond length
        if dist < cutOffDistance :
          #print keyI, indexToZ[keyI], indexToCoordinates[keyI], keyJ, indexToZ[keyJ], indexToCoordinates[keyJ], dist
          bondsToConsider.append( (keyI,keyJ,dist) )

print "Bonds to consider for this molecule"
for item in bondsToConsider:
  print item


# Save Optimised geom for the moment
optimised_list = geom_get_coords('geometry')

for currentBond in bondsToConsider:
  # Restore optimised geom
  geom_set_coords('geometry',optimised_list)

  # Set our bond parameters
  atomI  = currentBond[0]
  atomJ  = currentBond[1]
  eq = currentBond[2]
  print "Atom i is " + str(atomI) + " atom j is " + str(atomJ) + " eq is " + str(eq)



  # Scan

  geomWithOutBondInformation = '''
    geometry adjust
      zcoord
        bond  %i %i    %s cccc constant
      end
    end
  '''

  # This is truly dirty; I will go to Hell for this...
  geomWithBondInformation =  geomWithOutBondInformation % (atomI,atomJ,"%f")


  # How far aside of the equilibrium bond length should we go?
  min = eq - 0.2
  max = eq + 0.2
  results=scan_input(geomWithBondInformation,[min],[max],25,'dft',task_optimize)

  # Temp arrays for r and E
  x = []
  y = []

  for i in range(0, len(results) ):
     x.append(results[i][0][0])
     y.append(results[i][1][0])

  #Write data
  fileName = "bond_scan_" + str(atomI) + "_" + str(atomJ) + ".dat"
  f = open(fileName,'w')

  for i in range(0, len(x) ):
    f.write("%s, %s \n" % (float(x[i]),float(y[i])) )

  f.close()




end


# Initial optimisation
task dft optimize

# Do everything
task python

================================================================================


                                         
                                         


              Northwest Computational Chemistry Package (NWChem) 6.3
              ------------------------------------------------------


                    Environmental Molecular Sciences Laboratory
                       Pacific Northwest National Laboratory
                                Richland, WA 99352

                              Copyright (c) 1994-2012
                       Pacific Northwest National Laboratory
                            Battelle Memorial Institute

             NWChem is an open-source computational chemistry package
                        distributed under the terms of the
                      Educational Community License (ECL) 2.0
             A copy of the license is included with this distribution
                              in the LICENSE.TXT file

                                  ACKNOWLEDGMENT
                                  --------------

            This software and its documentation were developed at the
            EMSL at Pacific Northwest National Laboratory, a multiprogram
            national laboratory, operated for the U.S. Department of Energy
            by Battelle under Contract Number DE-AC05-76RL01830. Support
            for this work was provided by the Department of Energy Office
            of Biological and Environmental Research, Office of Basic
            Energy Sciences, and the Office of Advanced Scientific Computing.


           Job information
           ---------------

    hostname        = cyclops
    program         = nwchem
    date            = Thu Feb 13 17:16:08 2014

    compiled        = Thu_Feb_13_16:51:00_2014
    source          = /home/mw529/code/NWChem/6.3
    nwchem branch   = 6.3
    nwchem revision = 24652
    ga revision     = 10379
    input           = methane_scan.nw
    prefix          = molecule.
    data base       = ./molecule.db
    status          = startup
    nproc           =        1
    time left       =     -1s



           Memory information
           ------------------

    heap     =   13107201 doubles =    100.0 Mbytes
    stack    =   13107201 doubles =    100.0 Mbytes
    global   =   26214400 doubles =    200.0 Mbytes (distinct from heap & stack)
    total    =   52428802 doubles =    400.0 Mbytes
    verify   = yes
    hardfail = no 


           Directory information
           ---------------------

  0 permanent = .
  0 scratch   = .




                                NWChem Input Module
                                -------------------


                                   Methane Scan
                                   ------------

 Scaling coordinates for geometry "geometry" by  1.889725989
 (inverse scale =  0.529177249)



                             Geometry "geometry" -> ""
                             -------------------------

 Output coordinates in angstroms (scale by  1.889725989 to convert to a.u.)

  No.       Tag          Charge          X              Y              Z
 ---- ---------------- ---------- -------------- -------------- --------------
    1 C                    6.0000    -1.55829000    -1.29231000    -0.00626000
    2 H                    1.0000    -0.46561000    -1.29829000     0.00208000
    3 H                    1.0000    -1.92346000    -0.58343000     0.74087000
    4 H                    1.0000    -1.92895000    -2.29263000     0.23025000
    5 H                    1.0000    -1.91357000    -0.99608000    -0.99396000

      Atomic Mass 
      ----------- 

      C                 12.000000
      H                  1.007825


 Effective nuclear repulsion energy (a.u.)      13.4083289922

            Nuclear Dipole moment (a.u.) 
            ----------------------------
        X                 Y               Z
 ---------------- ---------------- ----------------
   -29.4444442376   -24.4233666969    -0.1102088197


            XYZ format geometry
            -------------------
     5
 geometry
 C                    -1.55829000    -1.29231000    -0.00626000
 H                    -0.46561000    -1.29829000     0.00208000
 H                    -1.92346000    -0.58343000     0.74087000
 H                    -1.92895000    -2.29263000     0.23025000
 H                    -1.91357000    -0.99608000    -0.99396000

 ==============================================================================
                                internuclear distances
 ------------------------------------------------------------------------------
       center one      |      center two      | atomic units |  angstroms
 ------------------------------------------------------------------------------
    2 H                |   1 C                |     2.06496  |     1.09273
    3 H                |   1 C                |     2.06496  |     1.09273
    4 H                |   1 C                |     2.06488  |     1.09269
    5 H                |   1 C                |     2.06104  |     1.09065
 ------------------------------------------------------------------------------
                         number of included internuclear distances:          4
 ==============================================================================



 ==============================================================================
                                 internuclear angles
 ------------------------------------------------------------------------------
        center 1       |       center 2       |       center 3       |  degrees
 ------------------------------------------------------------------------------
    2 H                |   1 C                |   3 H                |   109.42
    2 H                |   1 C                |   4 H                |   109.42
    2 H                |   1 C                |   5 H                |   109.52
    3 H                |   1 C                |   4 H                |   109.42
    3 H                |   1 C                |   5 H                |   109.52
    4 H                |   1 C                |   5 H                |   109.52
 ------------------------------------------------------------------------------
                            number of included internuclear angles:          6
 ==============================================================================





 Summary of "ao basis" -> "" (cartesian)
 ------------------------------------------------------------------------------
       Tag                 Description            Shells   Functions and Types
 ---------------- ------------------------------  ------  ---------------------
 *                           6-31G*                   on all atoms 



                               NWChem Python program
                               ---------------------


import math
from nwgeom import *

# Variables
atomZValueI = 6
atomZValueJ = 1
cutOffDistance = 1.2


indexToZ = {}
indexToCoordinates = {}
bondsToConsider = []


# How many atoms are there?
numberOfAtoms = len(rtdb_get("geometry:geometry:charges"))

# Array of Z values per atom
ZArray = rtdb_get("geometry:geometry:charges")


rawGeometryInAu = rtdb_get("geometry:geometry:coords")
# Get scaling factor
factor = rtdb_get('geometry:geometry:angstrom_to_au')
# Carry out conversion
rawGeometryInAng = map(lambda x: x/factor, rawGeometryInAu)


# Note this runs 0 --> numberOfAtoms-1
for i in range(numberOfAtoms):
  # Add Atom to index
  indexToZ[i+1] = int(ZArray[i])

  # Add Cartesians to index
  # This pretty mess is due to the rawGeometryInAng starting from 0
  x = (3*(i)) + 0
  y = (3*(i)) + 1
  z = (3*(i)) + 2


  indexToCoordinates[i+1] = rawGeometryInAng[x], rawGeometryInAng[y], rawGeometryInAng[z]


# Show atom index, Zvalue and coordinates
#print "Index, Zvalue, Coordinates"
#for key in indexToZ.keys():
#  print key, indexToZ[key], indexToCoordinates[key]



# Step through index
for keyI in indexToZ.keys():
  # Select current Atom C
  if indexToZ[keyI] == atomZValueI:
    # Step through index
    for keyJ in indexToZ.keys():
      # Select atom H
      if indexToZ[keyJ] == atomZValueJ:
        # Calculate distance from C_i to H_j
        x = float(indexToCoordinates[keyI][0]) - float(indexToCoordinates[keyJ][0])
        y = float(indexToCoordinates[keyI][1]) - float(indexToCoordinates[keyJ][1])
        z = float(indexToCoordinates[keyI][2]) - float(indexToCoordinates[keyJ][2])

        dist =  math.sqrt(x*x + y*y + z*z)

        # Typical C-H bond length
        if dist < cutOffDistance :
          #print keyI, indexToZ[keyI], indexToCoordinates[keyI], keyJ, indexToZ[keyJ], indexToCoordinates[keyJ], dist
          bondsToConsider.append( (keyI,keyJ,dist) )

print "Bonds to consider for this molecule"
for item in bondsToConsider:
  print item


# Save Optimised geom for the moment
optimised_list = geom_get_coords('geometry')

for currentBond in bondsToConsider:
  # Restore optimised geom
  geom_set_coords('geometry',optimised_list)

  # Set our bond parameters
  atomI  = currentBond[0]
  atomJ  = currentBond[1]
  eq = currentBond[2]
  print "Atom i is " + str(atomI) + " atom j is " + str(atomJ) + " eq is " + str(eq)



  # Scan

  geomWithOutBondInformation = '''
    geometry adjust
      zcoord
        bond  %i %i    %s cccc constant
      end
    end
  '''

  # This is truly dirty; I will go to Hell for this...
  geomWithBondInformation =  geomWithOutBondInformation % (atomI,atomJ,"%f")


  # How far aside of the equilibrium bond length should we go?
  min = eq - 0.2
  max = eq + 0.2
  results=scan_input(geomWithBondInformation,[min],[max],25,'dft',task_optimize)

  # Temp arrays for r and E
  x = []
  y = []

  for i in range(0, len(results) ):
     x.append(results[i][0][0])
     y.append(results[i][1][0])

  #Write data
  fileName = "bond_scan_" + str(atomI) + "_" + str(atomJ) + ".dat"
  f = open(fileName,'w')

  for i in range(0, len(x) ):
    f.write("%s, %s \n" % (float(x[i]),float(y[i])) )

  f.close()







                           NWChem Geometry Optimization
                           ----------------------------




                                   Methane Scan


 maximum gradient threshold         (gmax) =   0.000450
 rms gradient threshold             (grms) =   0.000300
 maximum cartesian step threshold   (xmax) =   0.001800
 rms cartesian step threshold       (xrms) =   0.001200
 fixed trust radius                (trust) =   0.300000
 maximum step size to saddle      (sadstp) =   0.100000
 energy precision                  (eprec) =   5.0D-06
 maximum number of steps          (nptopt) =   20
 initial hessian option           (inhess) =    0
 line search option               (linopt) =    1
 hessian update option            (modupd) =    1
 saddle point option              (modsad) =    0
 initial eigen-mode to follow     (moddir) =    0
 initial variable to follow       (vardir) =    0
 follow first negative mode     (firstneg) =    T
 apply conjugacy                    (opcg) =    F
 source of zmatrix                         =           


          -------------------
          Energy Minimization
          -------------------


 Using diagonal initial Hessian 

          --------
          Step   0
          --------


                         Geometry "geometry" -> "geometry"
                         ---------------------------------

 Output coordinates in angstroms (scale by  1.889725989 to convert to a.u.)

  No.       Tag          Charge          X              Y              Z
 ---- ---------------- ---------- -------------- -------------- --------------
    1 C                    6.0000    -1.55829000    -1.29231000    -0.00626000
    2 H                    1.0000    -0.46561000    -1.29829000     0.00208000
    3 H                    1.0000    -1.92346000    -0.58343000     0.74087000
    4 H                    1.0000    -1.92895000    -2.29263000     0.23025000
    5 H                    1.0000    -1.91357000    -0.99608000    -0.99396000

      Atomic Mass 
      ----------- 

      C                 12.000000
      H                  1.007825


 Effective nuclear repulsion energy (a.u.)      13.4083289922

            Nuclear Dipole moment (a.u.) 
            ----------------------------
        X                 Y               Z
 ---------------- ---------------- ----------------
   -29.4444442376   -24.4233666969    -0.1102088197


                                 NWChem DFT Module
                                 -----------------


                                   Methane Scan


                      Basis "ao basis" -> "ao basis" (cartesian)
                      -----
  C (Carbon)
  ----------
            Exponent  Coefficients 
       -------------- ---------------------------------------------------------
  1 S  3.04752490E+03  0.001835
  1 S  4.57369510E+02  0.014037
  1 S  1.03948690E+02  0.068843
  1 S  2.92101550E+01  0.232184
  1 S  9.28666300E+00  0.467941
  1 S  3.16392700E+00  0.362312

  2 S  7.86827240E+00 -0.119332
  2 S  1.88128850E+00 -0.160854
  2 S  5.44249300E-01  1.143456

  3 P  7.86827240E+00  0.068999
  3 P  1.88128850E+00  0.316424
  3 P  5.44249300E-01  0.744308

  4 S  1.68714400E-01  1.000000

  5 P  1.68714400E-01  1.000000

  6 D  8.00000000E-01  1.000000

  H (Hydrogen)
  ------------
            Exponent  Coefficients 
       -------------- ---------------------------------------------------------
  1 S  1.87311370E+01  0.033495
  1 S  2.82539370E+00  0.234727
  1 S  6.40121700E-01  0.813757

  2 S  1.61277800E-01  1.000000



 Summary of "ao basis" -> "ao basis" (cartesian)
 ------------------------------------------------------------------------------
       Tag                 Description            Shells   Functions and Types
 ---------------- ------------------------------  ------  ---------------------
 C                           6-31G*                  6       15   3s2p1d
 H                           6-31G*                  2        2   2s


  Caching 1-el integrals 

            General Information
            -------------------
          SCF calculation type: DFT
          Wavefunction type:  closed shell.
          No. of atoms     :     5
          No. of electrons :    10
           Alpha electrons :     5
            Beta electrons :     5
          Charge           :     0
          Spin multiplicity:     1
          Use of symmetry is: off; symmetry adaption is: off
          Maximum number of iterations:  30
          AO basis - number of functions:    23
                     number of shells:    14
          Convergence on energy requested: 1.00D-06
          Convergence on density requested: 1.00D-05
          Convergence on gradient requested: 5.00D-04

              XC Information
              --------------
                         B3LYP Method XC Potential
                     Hartree-Fock (Exact) Exchange  0.200          
                        Slater Exchange Functional  0.800 local    
                    Becke 1988 Exchange Functional  0.720 non-local
              Lee-Yang-Parr Correlation Functional  0.810          
                  VWN I RPA Correlation Functional  0.190 local    

             Grid Information
             ----------------
          Grid used for XC integration:  medium    
          Radial quadrature: Mura-Knowles        
          Angular quadrature: Lebedev. 
          Tag              B.-S. Rad. Rad. Pts. Rad. Cut. Ang. Pts.
          ---              ---------- --------- --------- ---------
          C                   0.70       49           6.0       434
          H                   0.35       45           7.0       434
          Grid pruning is: on 
          Number of quadrature shells:   229
          Spatial weights used:  Erf1

          Convergence Information
          -----------------------
          Convergence aids based upon iterative change in 
          total energy or number of iterations. 
          Levelshifting, if invoked, occurs when the 
          HOMO/LUMO gap drops below (HL_TOL): 1.00D-02
          DIIS, if invoked, will attempt to extrapolate 
          using up to (NFOCK): 10 stored Fock matrices.

                    Damping( 0%)  Levelshifting(0.5)       DIIS
                  --------------- ------------------- ---------------
          dE  on:    start            ASAP                start   
          dE off:    2 iters         30 iters            30 iters 


      Screening Tolerance Information
      -------------------------------
          Density screening/tol_rho: 1.00D-10
          AO Gaussian exp screening on grid/accAOfunc:  14
          CD Gaussian exp screening on grid/accCDfunc:  20
          XC Gaussian exp screening on grid/accXCfunc:  20
          Schwarz screening/accCoul: 1.00D-08


      Superposition of Atomic Density Guess
      -------------------------------------

 Sum of atomic energies:         -39.65318430

      Non-variational initial energy
      ------------------------------

 Total energy =     -40.234222
 1-e energy   =     -78.321573
 2-e energy   =      24.679023
 HOMO         =      -0.508393
 LUMO         =       0.159664

   Time after variat. SCF:      0.1
   Time prior to 1st pass:      0.1

 #quartets = 5.565D+03 #integrals = 3.619D+04 #direct =  0.0% #cached =100.0%


 Integral file          = ./molecule.aoints.0
 Record size in doubles =    65536    No. of integs per rec  =    43688
 Max. records in memory =        3    Max. records in file   = 23743107
 No. of bits per label  =        8    No. of bits per value  =       64


 Grid_pts file          = ./molecule.gridpts.0
 Record size in doubles =  12289        No. of grid_pts per rec  =   3070
 Max. records in memory =     37        Max. recs in file   = 126619506


           Memory utilization after 1st SCF pass: 
           Heap Space remaining (MW):       12.45            12454120
          Stack Space remaining (MW):       13.11            13106936

   convergence    iter        energy       DeltaE   RMS-Dens  Diis-err    time
 ---------------- ----- ----------------- --------- --------- ---------  ------
 d= 0,ls=0.0,diis     1    -40.5081736690 -5.39D+01  1.03D-02  1.12D-01     0.4
 d= 0,ls=0.0,diis     2    -40.5177493810 -9.58D-03  3.18D-03  6.77D-03     0.7
 d= 0,ls=0.0,diis     3    -40.5179603724 -2.11D-04  1.69D-03  4.56D-03     0.9
 d= 0,ls=0.0,diis     4    -40.5185347562 -5.74D-04  5.17D-05  4.95D-06     1.1
 d= 0,ls=0.0,diis     5    -40.5185354357 -6.79D-07  1.48D-06  7.33D-10     1.4


         Total DFT energy =      -40.518535435677
      One electron energy =      -79.783481576001
           Coulomb energy =       32.760130473245
    Exchange-Corr. energy =       -6.903356699487
 Nuclear repulsion energy =       13.408328992246

    Dispersion correction =       -0.000156625679

 Numeric. integr. density =       10.000000807006

     Total iterative time =      1.3s



 center of mass
 --------------
 x =  -2.94455460 y =  -2.44225316 z =  -0.01132122

 moments of inertia (a.u.)
 ------------------
          11.447359904905          -0.000497376602           0.001697558213
          -0.000497376602          11.447260677616          -0.001453665162
           0.001697558213          -0.001453665162          11.451503656281

     Multipole analysis of the density
     ---------------------------------

     L   x y z        total         alpha         beta         nuclear
     -   - - -        -----         -----         ----         -------
     0   0 0 0     -0.000000     -5.000000     -5.000000     10.000000

     1   1 0 0     -0.000066     14.722189     14.722189    -29.444444
     1   0 1 0      0.000051     12.211709     12.211709    -24.423367
     1   0 0 1     -0.000178      0.055015      0.055015     -0.110209

     2   2 0 0     -6.132865    -49.255821    -49.255821     92.378776
     2   1 1 0     -0.000224    -35.956982    -35.956982     71.913740
     2   1 0 1      0.001393     -0.160713     -0.160713      0.322818
     2   0 2 0     -6.133559    -35.732494    -35.732494     65.331429
     2   0 1 1     -0.000302     -0.135456     -0.135456      0.270610
     2   0 0 2     -6.131160     -5.904754     -5.904754      5.678347


 Parallel integral file used       1 records with       0 large values



                            NWChem DFT Gradient Module
                            --------------------------


                                   Methane Scan



  charge          =   0.00
  wavefunction    = closed shell



                         DFT ENERGY GRADIENTS

    atom               coordinates                        gradient
                 x          y          z           x          y          z
   1 C      -2.944741  -2.442112  -0.011830   -0.000505   0.000382  -0.001372
   2 H      -0.879875  -2.453412   0.003931   -0.000540  -0.000017   0.000068
   3 H      -3.634812  -1.102523   1.400041    0.000215  -0.000387  -0.000315
   4 H      -3.645187  -4.332442   0.435109    0.000226   0.000521  -0.000057
   5 H      -3.616123  -1.882318  -1.878312    0.000604  -0.000500   0.001676

                 ----------------------------------------
                 |  Time  |  1-e(secs)   |  2-e(secs)   |
                 ----------------------------------------
                 |  CPU   |       0.00   |       0.09   |
                 ----------------------------------------
                 |  WALL  |       0.00   |       0.09   |
                 ----------------------------------------

@ Step       Energy      Delta E   Gmax     Grms     Xrms     Xmax   Walltime
@ ---- ---------------- -------- -------- -------- -------- -------- --------
@    0     -40.51853544  0.0D+00  0.00168  0.00066  0.00000  0.00000     10.7
                                                                    


                                 NWChem DFT Module
                                 -----------------


                                   Methane Scan


  Caching 1-el integrals 

            General Information
            -------------------
          SCF calculation type: DFT
          Wavefunction type:  closed shell.
          No. of atoms     :     5
          No. of electrons :    10
           Alpha electrons :     5
            Beta electrons :     5
          Charge           :     0
          Spin multiplicity:     1
          Use of symmetry is: off; symmetry adaption is: off
          Maximum number of iterations:  30
          AO basis - number of functions:    23
                     number of shells:    14
          Convergence on energy requested: 1.00D-06
          Convergence on density requested: 1.00D-05
          Convergence on gradient requested: 5.00D-04

              XC Information
              --------------
                         B3LYP Method XC Potential
                     Hartree-Fock (Exact) Exchange  0.200          
                        Slater Exchange Functional  0.800 local    
                    Becke 1988 Exchange Functional  0.720 non-local
              Lee-Yang-Parr Correlation Functional  0.810          
                  VWN I RPA Correlation Functional  0.190 local    

             Grid Information
             ----------------
          Grid used for XC integration:  medium    
          Radial quadrature: Mura-Knowles        
          Angular quadrature: Lebedev. 
          Tag              B.-S. Rad. Rad. Pts. Rad. Cut. Ang. Pts.
          ---              ---------- --------- --------- ---------
          C                   0.70       49           6.0       434
          H                   0.35       45           7.0       434
          Grid pruning is: on 
          Number of quadrature shells:   229
          Spatial weights used:  Erf1

          Convergence Information
          -----------------------
          Convergence aids based upon iterative change in 
          total energy or number of iterations. 
          Levelshifting, if invoked, occurs when the 
          HOMO/LUMO gap drops below (HL_TOL): 1.00D-02
          DIIS, if invoked, will attempt to extrapolate 
          using up to (NFOCK): 10 stored Fock matrices.

                    Damping( 0%)  Levelshifting(0.5)       DIIS
                  --------------- ------------------- ---------------
          dE  on:    start            ASAP                start   
          dE off:    2 iters         30 iters            30 iters 


      Screening Tolerance Information
      -------------------------------
          Density screening/tol_rho: 1.00D-10
          AO Gaussian exp screening on grid/accAOfunc:  14
          CD Gaussian exp screening on grid/accCDfunc:  20
          XC Gaussian exp screening on grid/accXCfunc:  20
          Schwarz screening/accCoul: 1.00D-08


 Loading old vectors from job with title :

Methane Scan

   Time after variat. SCF:      1.9
   Time prior to 1st pass:      1.9

 #quartets = 5.565D+03 #integrals = 3.617D+04 #direct =  0.0% #cached =100.0%


 Integral file          = ./molecule.aoints.0
 Record size in doubles =    65536    No. of integs per rec  =    43688
 Max. records in memory =        3    Max. records in file   = 23743102
 No. of bits per label  =        8    No. of bits per value  =       64


 Grid_pts file          = ./molecule.gridpts.0
 Record size in doubles =  12289        No. of grid_pts per rec  =   3070
 Max. records in memory =     37        Max. recs in file   = 126619577


           Memory utilization after 1st SCF pass: 
           Heap Space remaining (MW):       12.45            12454120
          Stack Space remaining (MW):       13.11            13106936

   convergence    iter        energy       DeltaE   RMS-Dens  Diis-err    time
 ---------------- ----- ----------------- --------- --------- ---------  ------
 d= 0,ls=0.0,diis     1    -40.5185395703 -5.39D+01  1.27D-04  7.50D-06     2.3
 d= 0,ls=0.0,diis     2    -40.5185407569 -1.19D-06  5.88D-05  3.04D-06     2.5