# Example from http://www.nwchem-sw.org/index.php/Release62:Nudged_Elastic_Band_%28NEB%29_and_Zero_Temperature_String_Methods
Title "TS_searching_benzene_MeO"
echo
start meo-neb


geometry nocenter noautosym noautoz
   C        0.15102        0.01595       -0.29400
   C        0.08477        0.52691        1.00416
   C        1.21946        0.51068        1.81965
   C        2.41910       -0.01640        1.33608
   C        2.48463       -0.52751        0.03817
   C        1.35061       -0.51133       -0.77684
   H       -0.73127        0.02667       -0.92802
   H       -0.84308        0.94022        1.38835
   H        1.15883        0.91136        2.82721
   H        3.30124       -0.03093        1.97022
   H        3.41740       -0.93875       -0.33760
   H        1.40190       -0.90997       -1.78622
   C       -0.17218        4.02015        2.62320
   H       -0.98240        4.63323        2.19597
   H        0.48159        4.62458        3.27291
   H        0.45381        3.68745        1.76964
   O       -0.61196        2.86489        3.21204
end

geometry endgeom nocenter noautosym noautoz
   C       -0.02220        0.07757        0.07696
   C        0.07649       -0.03750        1.46732
   C        1.28514       -0.12764        2.16600
   C        2.48054       -0.10197        1.40821
   C        2.42603        0.01257        0.00324
   C        1.18531        0.10239       -0.66199
   H       -0.99295        0.14890       -0.43351
   H       -1.36833        2.92758        2.88456
   H        1.31794       -0.21355        3.26123
   H        3.45194       -0.16976        1.91827
   H        3.35758        0.03333       -0.57758
   H        1.15238        0.19641       -1.75676
   C        0.04072        3.95014        2.00746
   H        0.12507        4.83604        1.35004
   H        0.65272        4.13821        2.91790
   H        0.48287        3.07963        1.47404
   O       -1.38670        3.77658        2.30427
end

#### Gaussian DFT ####
basis
* library 3-21G
end

dft
  xc b3lyp
  odft
  mult 2
  #maxiter 5001
  #cgmin
end

neb
  nbeads 10
  kbeads 1.0
  maxiter 10
  stepsize 0.10
  print_shift 1
end
task dft neb ignore
